(declare-sort Loc 0)
(declare-const l0 Loc)
(declare-const l1 Loc)
(declare-const l2 Loc)
(declare-const l3 Loc)
(declare-const l4 Loc)
(declare-const l5 Loc)
(declare-const l6 Loc)
(declare-const l7 Loc)
(declare-const l8 Loc)
(declare-const l9 Loc)
(declare-const l10 Loc)
(declare-const l11 Loc)
(declare-const l12 Loc)
(declare-const l13 Loc)
(declare-const l14 Loc)
(declare-const l15 Loc)
(declare-const l16 Loc)
(declare-const l17 Loc)
(declare-const l18 Loc)
(declare-const l19 Loc)
(declare-const l20 Loc)
(declare-const l21 Loc)
(declare-const l22 Loc)
(declare-const l23 Loc)
(declare-const l24 Loc)
(declare-const l25 Loc)
(declare-const l26 Loc)
(declare-const l27 Loc)
(assert (distinct l0 l1 l2 l3 l4 l5 l6 l7 l8 l9 l10 l11 l12 l13 l14 l15 l16 l17 l18 l19 l20 l21 l22 l23 l24 l25 l26 l27))

(define-fun cfg_init ( (pc Loc) (src Loc) (rel Bool) ) Bool
  (and (= pc src) rel))

(define-fun cfg_trans2 ( (pc Loc) (src Loc)
                         (pc1 Loc) (dst Loc)
                         (rel Bool) ) Bool
  (and (= pc src) (= pc1 dst) rel))

(define-fun cfg_trans3 ( (pc Loc) (exit Loc)
                         (pc1 Loc) (call Loc)
                         (pc2 Loc) (return Loc)
                         (rel Bool) ) Bool
  (and (= pc exit) (= pc1 call) (= pc2 return) rel))

(define-fun init_main ( (pc^0 Loc) (i^0 Int) (j^0 Int) (k^0 Int) (maxarg1^0 Int) (maxarg2^0 Int) (n^0 Int) (scale^0 Int) (sigma^0 Int) (sqrarg^0 Int) (sum^0 Int) (tau^0 Int) (tmp^0 Int) (tmp___0^0 Int) (tmp___1^0 Int) (tmp___2^0 Int) (tmp___3^0 Int) (tmp___4^0 Int) (tmp___5^0 Int) ) Bool
  (cfg_init pc^0 l27 true))

(define-fun next_main (
                 (pc^0 Loc) (i^0 Int) (j^0 Int) (k^0 Int) (maxarg1^0 Int) (maxarg2^0 Int) (n^0 Int) (scale^0 Int) (sigma^0 Int) (sqrarg^0 Int) (sum^0 Int) (tau^0 Int) (tmp^0 Int) (tmp___0^0 Int) (tmp___1^0 Int) (tmp___2^0 Int) (tmp___3^0 Int) (tmp___4^0 Int) (tmp___5^0 Int)
                 (pc^post Loc) (i^post Int) (j^post Int) (k^post Int) (maxarg1^post Int) (maxarg2^post Int) (n^post Int) (scale^post Int) (sigma^post Int) (sqrarg^post Int) (sum^post Int) (tau^post Int) (tmp^post Int) (tmp___0^post Int) (tmp___1^post Int) (tmp___2^post Int) (tmp___3^post Int) (tmp___4^post Int) (tmp___5^post Int)
             ) Bool
  (or
    (cfg_trans2 pc^0 l0 pc^post l1 (and (and (and (and (and (and (and (and (and (and (and (and (and (and (and (and (and (= i^0 i^post) (= j^0 j^post)) (= k^0 k^post)) (= maxarg1^0 maxarg1^post)) (= maxarg2^0 maxarg2^post)) (= n^0 n^post)) (= scale^0 scale^post)) (= sigma^0 sigma^post)) (= sqrarg^0 sqrarg^post)) (= sum^0 sum^post)) (= tau^0 tau^post)) (= tmp^0 tmp^post)) (= tmp___0^0 tmp___0^post)) (= tmp___1^0 tmp___1^post)) (= tmp___2^0 tmp___2^post)) (= tmp___3^0 tmp___3^post)) (= tmp___4^0 tmp___4^post)) (= tmp___5^0 tmp___5^post)))
    (cfg_trans2 pc^0 l2 pc^post l3 (and (and (and (and (and (and (and (and (and (and (and (and (and (and (and (and (and (= i^0 i^post) (= j^0 j^post)) (= k^0 k^post)) (= maxarg1^0 maxarg1^post)) (= maxarg2^0 maxarg2^post)) (= n^0 n^post)) (= scale^0 scale^post)) (= sigma^0 sigma^post)) (= sqrarg^0 sqrarg^post)) (= sum^0 sum^post)) (= tau^0 tau^post)) (= tmp^0 tmp^post)) (= tmp___0^0 tmp___0^post)) (= tmp___1^0 tmp___1^post)) (= tmp___2^0 tmp___2^post)) (= tmp___3^0 tmp___3^post)) (= tmp___4^0 tmp___4^post)) (= tmp___5^0 tmp___5^post)))
    (cfg_trans2 pc^0 l4 pc^post l2 (and (and (and (and (and (and (and (and (and (and (and (and (and (and (and (and (and (= i^0 i^post) (= j^0 j^post)) (= k^0 k^post)) (= maxarg1^0 maxarg1^post)) (= maxarg2^0 maxarg2^post)) (= n^0 n^post)) (= scale^0 scale^post)) (= sigma^0 sigma^post)) (= sqrarg^0 sqrarg^post)) (= sum^0 sum^post)) (= tau^0 tau^post)) (= tmp^0 tmp^post)) (= tmp___0^0 tmp___0^post)) (= tmp___1^0 tmp___1^post)) (= tmp___2^0 tmp___2^post)) (= tmp___3^0 tmp___3^post)) (= tmp___4^0 tmp___4^post)) (= tmp___5^0 tmp___5^post)))
    (cfg_trans2 pc^0 l4 pc^post l2 (and (and (and (and (and (and (and (and (and (and (and (and (and (and (and (and (and (= i^0 i^post) (= j^0 j^post)) (= k^0 k^post)) (= maxarg1^0 maxarg1^post)) (= maxarg2^0 maxarg2^post)) (= n^0 n^post)) (= scale^0 scale^post)) (= sigma^0 sigma^post)) (= sqrarg^0 sqrarg^post)) (= sum^0 sum^post)) (= tau^0 tau^post)) (= tmp^0 tmp^post)) (= tmp___0^0 tmp___0^post)) (= tmp___1^0 tmp___1^post)) (= tmp___2^0 tmp___2^post)) (= tmp___3^0 tmp___3^post)) (= tmp___4^0 tmp___4^post)) (= tmp___5^0 tmp___5^post)))
    (cfg_trans2 pc^0 l5 pc^post l6 (and (and (and (and (and (and (and (and (and (and (and (and (and (and (and (and (and (= i^0 i^post) (= j^0 j^post)) (= k^0 k^post)) (= maxarg1^0 maxarg1^post)) (= maxarg2^0 maxarg2^post)) (= n^0 n^post)) (= scale^0 scale^post)) (= sigma^0 sigma^post)) (= sqrarg^0 sqrarg^post)) (= sum^0 sum^post)) (= tau^0 tau^post)) (= tmp^0 tmp^post)) (= tmp___0^0 tmp___0^post)) (= tmp___1^0 tmp___1^post)) (= tmp___2^0 tmp___2^post)) (= tmp___3^0 tmp___3^post)) (= tmp___4^0 tmp___4^post)) (= tmp___5^0 tmp___5^post)))
    (cfg_trans2 pc^0 l7 pc^post l8 (and (and (and (and (and (and (and (and (and (and (and (and (and (and (and (and (and (and (<= (+ 1 n^0) (+ 0 i^0)) (= j^post (+ 1 j^0))) (= i^0 i^post)) (= k^0 k^post)) (= maxarg1^0 maxarg1^post)) (= maxarg2^0 maxarg2^post)) (= n^0 n^post)) (= scale^0 scale^post)) (= sigma^0 sigma^post)) (= sqrarg^0 sqrarg^post)) (= sum^0 sum^post)) (= tau^0 tau^post)) (= tmp^0 tmp^post)) (= tmp___0^0 tmp___0^post)) (= tmp___1^0 tmp___1^post)) (= tmp___2^0 tmp___2^post)) (= tmp___3^0 tmp___3^post)) (= tmp___4^0 tmp___4^post)) (= tmp___5^0 tmp___5^post)))
    (cfg_trans2 pc^0 l7 pc^post l9 (and (and (and (and (and (and (and (and (and (and (and (and (and (and (and (and (and (and (<= (+ 0 i^0) (+ 0 n^0)) (= i^post (+ 1 i^0))) (= j^0 j^post)) (= k^0 k^post)) (= maxarg1^0 maxarg1^post)) (= maxarg2^0 maxarg2^post)) (= n^0 n^post)) (= scale^0 scale^post)) (= sigma^0 sigma^post)) (= sqrarg^0 sqrarg^post)) (= sum^0 sum^post)) (= tau^0 tau^post)) (= tmp^0 tmp^post)) (= tmp___0^0 tmp___0^post)) (= tmp___1^0 tmp___1^post)) (= tmp___2^0 tmp___2^post)) (= tmp___3^0 tmp___3^post)) (= tmp___4^0 tmp___4^post)) (= tmp___5^0 tmp___5^post)))
    (cfg_trans2 pc^0 l10 pc^post l11 (and (and (and (and (and (and (and (and (and (and (and (and (and (and (and (and (and (= i^0 i^post) (= j^0 j^post)) (= k^0 k^post)) (= maxarg1^0 maxarg1^post)) (= maxarg2^0 maxarg2^post)) (= n^0 n^post)) (= scale^0 scale^post)) (= sigma^0 sigma^post)) (= sqrarg^0 sqrarg^post)) (= sum^0 sum^post)) (= tau^0 tau^post)) (= tmp^0 tmp^post)) (= tmp___0^0 tmp___0^post)) (= tmp___1^0 tmp___1^post)) (= tmp___2^0 tmp___2^post)) (= tmp___3^0 tmp___3^post)) (= tmp___4^0 tmp___4^post)) (= tmp___5^0 tmp___5^post)))
    (cfg_trans2 pc^0 l12 pc^post l9 (and (and (and (and (and (and (and (and (and (and (and (and (and (and (and (and (and (and (<= (+ 1 n^0) (+ 0 i^0)) (= tau^post tau^post)) (= i^0 i^post)) (= j^0 j^post)) (= k^0 k^post)) (= maxarg1^0 maxarg1^post)) (= maxarg2^0 maxarg2^post)) (= n^0 n^post)) (= scale^0 scale^post)) (= sigma^0 sigma^post)) (= sqrarg^0 sqrarg^post)) (= sum^0 sum^post)) (= tmp^0 tmp^post)) (= tmp___0^0 tmp___0^post)) (= tmp___1^0 tmp___1^post)) (= tmp___2^0 tmp___2^post)) (= tmp___3^0 tmp___3^post)) (= tmp___4^0 tmp___4^post)) (= tmp___5^0 tmp___5^post)))
    (cfg_trans2 pc^0 l12 pc^post l13 (and (and (and (and (and (and (and (and (and (and (and (and (and (and (and (and (and (and (<= (+ 0 i^0) (+ 0 n^0)) (= sum^post sum^post)) (= i^post (+ 1 i^0))) (= j^0 j^post)) (= k^0 k^post)) (= maxarg1^0 maxarg1^post)) (= maxarg2^0 maxarg2^post)) (= n^0 n^post)) (= scale^0 scale^post)) (= sigma^0 sigma^post)) (= sqrarg^0 sqrarg^post)) (= tau^0 tau^post)) (= tmp^0 tmp^post)) (= tmp___0^0 tmp___0^post)) (= tmp___1^0 tmp___1^post)) (= tmp___2^0 tmp___2^post)) (= tmp___3^0 tmp___3^post)) (= tmp___4^0 tmp___4^post)) (= tmp___5^0 tmp___5^post)))
    (cfg_trans2 pc^0 l14 pc^post l15 (and (and (and (and (and (and (and (and (and (and (and (and (and (and (and (and (and (and (<= (+ 1 n^0) (+ 0 j^0)) (= i^0 i^post)) (= j^0 j^post)) (= k^0 k^post)) (= maxarg1^0 maxarg1^post)) (= maxarg2^0 maxarg2^post)) (= n^0 n^post)) (= scale^0 scale^post)) (= sigma^0 sigma^post)) (= sqrarg^0 sqrarg^post)) (= sum^0 sum^post)) (= tau^0 tau^post)) (= tmp^0 tmp^post)) (= tmp___0^0 tmp___0^post)) (= tmp___1^0 tmp___1^post)) (= tmp___2^0 tmp___2^post)) (= tmp___3^0 tmp___3^post)) (= tmp___4^0 tmp___4^post)) (= tmp___5^0 tmp___5^post)))
    (cfg_trans2 pc^0 l14 pc^post l13 (and (and (and (and (and (and (and (and (and (and (and (and (and (and (and (and (and (and (<= (+ 0 j^0) (+ 0 n^0)) (= i^0 i^post)) (= j^0 j^post)) (= k^0 k^post)) (= maxarg1^0 maxarg1^post)) (= maxarg2^0 maxarg2^post)) (= n^0 n^post)) (= scale^0 scale^post)) (= sigma^0 sigma^post)) (= sqrarg^0 sqrarg^post)) (= sum^0 sum^post)) (= tau^0 tau^post)) (= tmp^0 tmp^post)) (= tmp___0^0 tmp___0^post)) (= tmp___1^0 tmp___1^post)) (= tmp___2^0 tmp___2^post)) (= tmp___3^0 tmp___3^post)) (= tmp___4^0 tmp___4^post)) (= tmp___5^0 tmp___5^post)))
    (cfg_trans2 pc^0 l16 pc^post l17 (and (and (and (and (and (and (and (and (and (and (and (and (and (and (and (and (and (= i^0 i^post) (= j^0 j^post)) (= k^0 k^post)) (= maxarg1^0 maxarg1^post)) (= maxarg2^0 maxarg2^post)) (= n^0 n^post)) (= scale^0 scale^post)) (= sigma^0 sigma^post)) (= sqrarg^0 sqrarg^post)) (= sum^0 sum^post)) (= tau^0 tau^post)) (= tmp^0 tmp^post)) (= tmp___0^0 tmp___0^post)) (= tmp___1^0 tmp___1^post)) (= tmp___2^0 tmp___2^post)) (= tmp___3^0 tmp___3^post)) (= tmp___4^0 tmp___4^post)) (= tmp___5^0 tmp___5^post)))
    (cfg_trans2 pc^0 l18 pc^post l8 (and (and (and (and (and (and (and (and (and (and (and (and (and (and (and (and (and (= i^0 i^post) (= j^0 j^post)) (= k^0 k^post)) (= maxarg1^0 maxarg1^post)) (= maxarg2^0 maxarg2^post)) (= n^0 n^post)) (= scale^0 scale^post)) (= sigma^0 sigma^post)) (= sqrarg^0 sqrarg^post)) (= sum^0 sum^post)) (= tau^0 tau^post)) (= tmp^0 tmp^post)) (= tmp___0^0 tmp___0^post)) (= tmp___1^0 tmp___1^post)) (= tmp___2^0 tmp___2^post)) (= tmp___3^0 tmp___3^post)) (= tmp___4^0 tmp___4^post)) (= tmp___5^0 tmp___5^post)))
    (cfg_trans2 pc^0 l19 pc^post l18 (and (and (and (and (and (and (and (and (and (and (and (and (and (and (and (and (and (= tmp___4^post tmp___4^post) (= tmp___5^post tmp___5^post)) (= sigma^post (+ 0 (* -1 tmp___5^post)))) (= i^0 i^post)) (= j^0 j^post)) (= k^0 k^post)) (= maxarg1^0 maxarg1^post)) (= maxarg2^0 maxarg2^post)) (= n^0 n^post)) (= scale^0 scale^post)) (= sqrarg^0 sqrarg^post)) (= sum^0 sum^post)) (= tau^0 tau^post)) (= tmp^0 tmp^post)) (= tmp___0^0 tmp___0^post)) (= tmp___1^0 tmp___1^post)) (= tmp___2^0 tmp___2^post)) (= tmp___3^0 tmp___3^post)))
    (cfg_trans2 pc^0 l19 pc^post l18 (and (and (and (and (and (and (and (and (and (and (and (and (and (and (and (and (and (= tmp___2^post tmp___2^post) (= tmp___3^post tmp___3^post)) (= sigma^post (+ 0 tmp___3^post))) (= i^0 i^post)) (= j^0 j^post)) (= k^0 k^post)) (= maxarg1^0 maxarg1^post)) (= maxarg2^0 maxarg2^post)) (= n^0 n^post)) (= scale^0 scale^post)) (= sqrarg^0 sqrarg^post)) (= sum^0 sum^post)) (= tau^0 tau^post)) (= tmp^0 tmp^post)) (= tmp___0^0 tmp___0^post)) (= tmp___1^0 tmp___1^post)) (= tmp___4^0 tmp___4^post)) (= tmp___5^0 tmp___5^post)))
    (cfg_trans2 pc^0 l20 pc^post l21 (and (and (and (and (and (and (and (and (and (and (and (and (and (and (and (and (and (= tmp___1^post tmp___1^post) (= i^0 i^post)) (= j^0 j^post)) (= k^0 k^post)) (= maxarg1^0 maxarg1^post)) (= maxarg2^0 maxarg2^post)) (= n^0 n^post)) (= scale^0 scale^post)) (= sigma^0 sigma^post)) (= sqrarg^0 sqrarg^post)) (= sum^0 sum^post)) (= tau^0 tau^post)) (= tmp^0 tmp^post)) (= tmp___0^0 tmp___0^post)) (= tmp___2^0 tmp___2^post)) (= tmp___3^0 tmp___3^post)) (= tmp___4^0 tmp___4^post)) (= tmp___5^0 tmp___5^post)))
    (cfg_trans2 pc^0 l8 pc^post l14 (and (and (and (and (and (and (and (and (and (and (and (and (and (and (and (and (and (= i^0 i^post) (= j^0 j^post)) (= k^0 k^post)) (= maxarg1^0 maxarg1^post)) (= maxarg2^0 maxarg2^post)) (= n^0 n^post)) (= scale^0 scale^post)) (= sigma^0 sigma^post)) (= sqrarg^0 sqrarg^post)) (= sum^0 sum^post)) (= tau^0 tau^post)) (= tmp^0 tmp^post)) (= tmp___0^0 tmp___0^post)) (= tmp___1^0 tmp___1^post)) (= tmp___2^0 tmp___2^post)) (= tmp___3^0 tmp___3^post)) (= tmp___4^0 tmp___4^post)) (= tmp___5^0 tmp___5^post)))
    (cfg_trans2 pc^0 l21 pc^post l16 (and (and (and (and (and (and (and (and (and (and (and (and (and (and (and (and (and (= sum^post (+ (+ 0 sum^0) tmp___1^0)) (= i^post (+ 1 i^0))) (= j^0 j^post)) (= k^0 k^post)) (= maxarg1^0 maxarg1^post)) (= maxarg2^0 maxarg2^post)) (= n^0 n^post)) (= scale^0 scale^post)) (= sigma^0 sigma^post)) (= sqrarg^0 sqrarg^post)) (= tau^0 tau^post)) (= tmp^0 tmp^post)) (= tmp___0^0 tmp___0^post)) (= tmp___1^0 tmp___1^post)) (= tmp___2^0 tmp___2^post)) (= tmp___3^0 tmp___3^post)) (= tmp___4^0 tmp___4^post)) (= tmp___5^0 tmp___5^post)))
    (cfg_trans2 pc^0 l22 pc^post l20 (and (and (and (and (and (and (and (and (and (and (and (and (and (and (and (and (and (and (<= 1 (+ 0 sqrarg^0)) (= i^0 i^post)) (= j^0 j^post)) (= k^0 k^post)) (= maxarg1^0 maxarg1^post)) (= maxarg2^0 maxarg2^post)) (= n^0 n^post)) (= scale^0 scale^post)) (= sigma^0 sigma^post)) (= sqrarg^0 sqrarg^post)) (= sum^0 sum^post)) (= tau^0 tau^post)) (= tmp^0 tmp^post)) (= tmp___0^0 tmp___0^post)) (= tmp___1^0 tmp___1^post)) (= tmp___2^0 tmp___2^post)) (= tmp___3^0 tmp___3^post)) (= tmp___4^0 tmp___4^post)) (= tmp___5^0 tmp___5^post)))
    (cfg_trans2 pc^0 l22 pc^post l20 (and (and (and (and (and (and (and (and (and (and (and (and (and (and (and (and (and (and (<= (+ 1 sqrarg^0) 0) (= i^0 i^post)) (= j^0 j^post)) (= k^0 k^post)) (= maxarg1^0 maxarg1^post)) (= maxarg2^0 maxarg2^post)) (= n^0 n^post)) (= scale^0 scale^post)) (= sigma^0 sigma^post)) (= sqrarg^0 sqrarg^post)) (= sum^0 sum^post)) (= tau^0 tau^post)) (= tmp^0 tmp^post)) (= tmp___0^0 tmp___0^post)) (= tmp___1^0 tmp___1^post)) (= tmp___2^0 tmp___2^post)) (= tmp___3^0 tmp___3^post)) (= tmp___4^0 tmp___4^post)) (= tmp___5^0 tmp___5^post)))
    (cfg_trans2 pc^0 l22 pc^post l21 (and (and (and (and (and (and (and (and (and (and (and (and (and (and (and (and (and (and (and (<= (+ 0 sqrarg^0) 0) (<= 0 (+ 0 sqrarg^0))) (= tmp___1^post 0)) (= i^0 i^post)) (= j^0 j^post)) (= k^0 k^post)) (= maxarg1^0 maxarg1^post)) (= maxarg2^0 maxarg2^post)) (= n^0 n^post)) (= scale^0 scale^post)) (= sigma^0 sigma^post)) (= sqrarg^0 sqrarg^post)) (= sum^0 sum^post)) (= tau^0 tau^post)) (= tmp^0 tmp^post)) (= tmp___0^0 tmp___0^post)) (= tmp___2^0 tmp___2^post)) (= tmp___3^0 tmp___3^post)) (= tmp___4^0 tmp___4^post)) (= tmp___5^0 tmp___5^post)))
    (cfg_trans2 pc^0 l17 pc^post l19 (and (and (and (and (and (and (and (and (and (and (and (and (and (and (and (and (and (and (<= (+ 1 n^0) (+ 0 i^0)) (= i^0 i^post)) (= j^0 j^post)) (= k^0 k^post)) (= maxarg1^0 maxarg1^post)) (= maxarg2^0 maxarg2^post)) (= n^0 n^post)) (= scale^0 scale^post)) (= sigma^0 sigma^post)) (= sqrarg^0 sqrarg^post)) (= sum^0 sum^post)) (= tau^0 tau^post)) (= tmp^0 tmp^post)) (= tmp___0^0 tmp___0^post)) (= tmp___1^0 tmp___1^post)) (= tmp___2^0 tmp___2^post)) (= tmp___3^0 tmp___3^post)) (= tmp___4^0 tmp___4^post)) (= tmp___5^0 tmp___5^post)))
    (cfg_trans2 pc^0 l17 pc^post l22 (and (and (and (and (and (and (and (and (and (and (and (and (and (and (and (and (and (and (<= (+ 0 i^0) (+ 0 n^0)) (= sqrarg^post sqrarg^post)) (= i^0 i^post)) (= j^0 j^post)) (= k^0 k^post)) (= maxarg1^0 maxarg1^post)) (= maxarg2^0 maxarg2^post)) (= n^0 n^post)) (= scale^0 scale^post)) (= sigma^0 sigma^post)) (= sum^0 sum^post)) (= tau^0 tau^post)) (= tmp^0 tmp^post)) (= tmp___0^0 tmp___0^post)) (= tmp___1^0 tmp___1^post)) (= tmp___2^0 tmp___2^post)) (= tmp___3^0 tmp___3^post)) (= tmp___4^0 tmp___4^post)) (= tmp___5^0 tmp___5^post)))
    (cfg_trans2 pc^0 l13 pc^post l12 (and (and (and (and (and (and (and (and (and (and (and (and (and (and (and (and (and (= i^0 i^post) (= j^0 j^post)) (= k^0 k^post)) (= maxarg1^0 maxarg1^post)) (= maxarg2^0 maxarg2^post)) (= n^0 n^post)) (= scale^0 scale^post)) (= sigma^0 sigma^post)) (= sqrarg^0 sqrarg^post)) (= sum^0 sum^post)) (= tau^0 tau^post)) (= tmp^0 tmp^post)) (= tmp___0^0 tmp___0^post)) (= tmp___1^0 tmp___1^post)) (= tmp___2^0 tmp___2^post)) (= tmp___3^0 tmp___3^post)) (= tmp___4^0 tmp___4^post)) (= tmp___5^0 tmp___5^post)))
    (cfg_trans2 pc^0 l11 pc^post l16 (and (and (and (and (and (and (and (and (and (and (and (and (and (and (and (and (and (and (<= (+ 1 n^0) (+ 0 i^0)) (= i^0 i^post)) (= j^0 j^post)) (= k^0 k^post)) (= maxarg1^0 maxarg1^post)) (= maxarg2^0 maxarg2^post)) (= n^0 n^post)) (= scale^0 scale^post)) (= sigma^0 sigma^post)) (= sqrarg^0 sqrarg^post)) (= sum^0 sum^post)) (= tau^0 tau^post)) (= tmp^0 tmp^post)) (= tmp___0^0 tmp___0^post)) (= tmp___1^0 tmp___1^post)) (= tmp___2^0 tmp___2^post)) (= tmp___3^0 tmp___3^post)) (= tmp___4^0 tmp___4^post)) (= tmp___5^0 tmp___5^post)))
    (cfg_trans2 pc^0 l11 pc^post l10 (and (and (and (and (and (and (and (and (and (and (and (and (and (and (and (and (and (and (<= (+ 0 i^0) (+ 0 n^0)) (= i^post (+ 1 i^0))) (= j^0 j^post)) (= k^0 k^post)) (= maxarg1^0 maxarg1^post)) (= maxarg2^0 maxarg2^post)) (= n^0 n^post)) (= scale^0 scale^post)) (= sigma^0 sigma^post)) (= sqrarg^0 sqrarg^post)) (= sum^0 sum^post)) (= tau^0 tau^post)) (= tmp^0 tmp^post)) (= tmp___0^0 tmp___0^post)) (= tmp___1^0 tmp___1^post)) (= tmp___2^0 tmp___2^post)) (= tmp___3^0 tmp___3^post)) (= tmp___4^0 tmp___4^post)) (= tmp___5^0 tmp___5^post)))
    (cfg_trans2 pc^0 l15 pc^post l0 (and (and (and (and (and (and (and (and (and (and (and (and (and (and (and (and (and (= k^post (+ 1 k^0)) (= i^0 i^post)) (= j^0 j^post)) (= maxarg1^0 maxarg1^post)) (= maxarg2^0 maxarg2^post)) (= n^0 n^post)) (= scale^0 scale^post)) (= sigma^0 sigma^post)) (= sqrarg^0 sqrarg^post)) (= sum^0 sum^post)) (= tau^0 tau^post)) (= tmp^0 tmp^post)) (= tmp___0^0 tmp___0^post)) (= tmp___1^0 tmp___1^post)) (= tmp___2^0 tmp___2^post)) (= tmp___3^0 tmp___3^post)) (= tmp___4^0 tmp___4^post)) (= tmp___5^0 tmp___5^post)))
    (cfg_trans2 pc^0 l23 pc^post l10 (and (and (and (and (and (and (and (and (and (and (and (and (and (and (and (and (and (and (<= 1 (+ 0 scale^0)) (= i^0 i^post)) (= j^0 j^post)) (= k^0 k^post)) (= maxarg1^0 maxarg1^post)) (= maxarg2^0 maxarg2^post)) (= n^0 n^post)) (= scale^0 scale^post)) (= sigma^0 sigma^post)) (= sqrarg^0 sqrarg^post)) (= sum^0 sum^post)) (= tau^0 tau^post)) (= tmp^0 tmp^post)) (= tmp___0^0 tmp___0^post)) (= tmp___1^0 tmp___1^post)) (= tmp___2^0 tmp___2^post)) (= tmp___3^0 tmp___3^post)) (= tmp___4^0 tmp___4^post)) (= tmp___5^0 tmp___5^post)))
    (cfg_trans2 pc^0 l23 pc^post l10 (and (and (and (and (and (and (and (and (and (and (and (and (and (and (and (and (and (and (<= (+ 1 scale^0) 0) (= i^0 i^post)) (= j^0 j^post)) (= k^0 k^post)) (= maxarg1^0 maxarg1^post)) (= maxarg2^0 maxarg2^post)) (= n^0 n^post)) (= scale^0 scale^post)) (= sigma^0 sigma^post)) (= sqrarg^0 sqrarg^post)) (= sum^0 sum^post)) (= tau^0 tau^post)) (= tmp^0 tmp^post)) (= tmp___0^0 tmp___0^post)) (= tmp___1^0 tmp___1^post)) (= tmp___2^0 tmp___2^post)) (= tmp___3^0 tmp___3^post)) (= tmp___4^0 tmp___4^post)) (= tmp___5^0 tmp___5^post)))
    (cfg_trans2 pc^0 l23 pc^post l15 (and (and (and (and (and (and (and (and (and (and (and (and (and (and (and (and (and (and (and (<= (+ 0 scale^0) 0) (<= 0 (+ 0 scale^0))) (= tmp___0^post 0)) (= i^0 i^post)) (= j^0 j^post)) (= k^0 k^post)) (= maxarg1^0 maxarg1^post)) (= maxarg2^0 maxarg2^post)) (= n^0 n^post)) (= scale^0 scale^post)) (= sigma^0 sigma^post)) (= sqrarg^0 sqrarg^post)) (= sum^0 sum^post)) (= tau^0 tau^post)) (= tmp^0 tmp^post)) (= tmp___1^0 tmp___1^post)) (= tmp___2^0 tmp___2^post)) (= tmp___3^0 tmp___3^post)) (= tmp___4^0 tmp___4^post)) (= tmp___5^0 tmp___5^post)))
    (cfg_trans2 pc^0 l24 pc^post l5 (and (and (and (and (and (and (and (and (and (and (and (and (and (and (and (and (and (= i^post (+ 1 i^0)) (= j^0 j^post)) (= k^0 k^post)) (= maxarg1^0 maxarg1^post)) (= maxarg2^0 maxarg2^post)) (= n^0 n^post)) (= scale^0 scale^post)) (= sigma^0 sigma^post)) (= sqrarg^0 sqrarg^post)) (= sum^0 sum^post)) (= tau^0 tau^post)) (= tmp^0 tmp^post)) (= tmp___0^0 tmp___0^post)) (= tmp___1^0 tmp___1^post)) (= tmp___2^0 tmp___2^post)) (= tmp___3^0 tmp___3^post)) (= tmp___4^0 tmp___4^post)) (= tmp___5^0 tmp___5^post)))
    (cfg_trans2 pc^0 l9 pc^post l7 (and (and (and (and (and (and (and (and (and (and (and (and (and (and (and (and (and (= i^0 i^post) (= j^0 j^post)) (= k^0 k^post)) (= maxarg1^0 maxarg1^post)) (= maxarg2^0 maxarg2^post)) (= n^0 n^post)) (= scale^0 scale^post)) (= sigma^0 sigma^post)) (= sqrarg^0 sqrarg^post)) (= sum^0 sum^post)) (= tau^0 tau^post)) (= tmp^0 tmp^post)) (= tmp___0^0 tmp___0^post)) (= tmp___1^0 tmp___1^post)) (= tmp___2^0 tmp___2^post)) (= tmp___3^0 tmp___3^post)) (= tmp___4^0 tmp___4^post)) (= tmp___5^0 tmp___5^post)))
    (cfg_trans2 pc^0 l25 pc^post l24 (and (and (and (and (and (and (and (and (and (and (and (and (and (and (and (and (and (and (<= (+ 0 maxarg1^0) (+ 0 maxarg2^0)) (= scale^post (+ 0 maxarg2^0))) (= i^0 i^post)) (= j^0 j^post)) (= k^0 k^post)) (= maxarg1^0 maxarg1^post)) (= maxarg2^0 maxarg2^post)) (= n^0 n^post)) (= sigma^0 sigma^post)) (= sqrarg^0 sqrarg^post)) (= sum^0 sum^post)) (= tau^0 tau^post)) (= tmp^0 tmp^post)) (= tmp___0^0 tmp___0^post)) (= tmp___1^0 tmp___1^post)) (= tmp___2^0 tmp___2^post)) (= tmp___3^0 tmp___3^post)) (= tmp___4^0 tmp___4^post)) (= tmp___5^0 tmp___5^post)))
    (cfg_trans2 pc^0 l25 pc^post l24 (and (and (and (and (and (and (and (and (and (and (and (and (and (and (and (and (and (and (<= (+ 1 maxarg2^0) (+ 0 maxarg1^0)) (= scale^post (+ 0 maxarg1^0))) (= i^0 i^post)) (= j^0 j^post)) (= k^0 k^post)) (= maxarg1^0 maxarg1^post)) (= maxarg2^0 maxarg2^post)) (= n^0 n^post)) (= sigma^0 sigma^post)) (= sqrarg^0 sqrarg^post)) (= sum^0 sum^post)) (= tau^0 tau^post)) (= tmp^0 tmp^post)) (= tmp___0^0 tmp___0^post)) (= tmp___1^0 tmp___1^post)) (= tmp___2^0 tmp___2^post)) (= tmp___3^0 tmp___3^post)) (= tmp___4^0 tmp___4^post)) (= tmp___5^0 tmp___5^post)))
    (cfg_trans2 pc^0 l6 pc^post l23 (and (and (and (and (and (and (and (and (and (and (and (and (and (and (and (and (and (and (<= (+ 1 n^0) (+ 0 i^0)) (= i^0 i^post)) (= j^0 j^post)) (= k^0 k^post)) (= maxarg1^0 maxarg1^post)) (= maxarg2^0 maxarg2^post)) (= n^0 n^post)) (= scale^0 scale^post)) (= sigma^0 sigma^post)) (= sqrarg^0 sqrarg^post)) (= sum^0 sum^post)) (= tau^0 tau^post)) (= tmp^0 tmp^post)) (= tmp___0^0 tmp___0^post)) (= tmp___1^0 tmp___1^post)) (= tmp___2^0 tmp___2^post)) (= tmp___3^0 tmp___3^post)) (= tmp___4^0 tmp___4^post)) (= tmp___5^0 tmp___5^post)))
    (cfg_trans2 pc^0 l6 pc^post l25 (and (and (and (and (and (and (and (and (and (and (and (and (and (and (and (and (and (and (<= (+ 0 i^0) (+ 0 n^0)) (= maxarg1^post (+ 0 scale^0))) (= tmp^post tmp^post)) (= maxarg2^post (+ 0 tmp^post))) (= i^0 i^post)) (= j^0 j^post)) (= k^0 k^post)) (= n^0 n^post)) (= scale^0 scale^post)) (= sigma^0 sigma^post)) (= sqrarg^0 sqrarg^post)) (= sum^0 sum^post)) (= tau^0 tau^post)) (= tmp___0^0 tmp___0^post)) (= tmp___1^0 tmp___1^post)) (= tmp___2^0 tmp___2^post)) (= tmp___3^0 tmp___3^post)) (= tmp___4^0 tmp___4^post)) (= tmp___5^0 tmp___5^post)))
    (cfg_trans2 pc^0 l1 pc^post l4 (and (and (and (and (and (and (and (and (and (and (and (and (and (and (and (and (and (and (<= (+ 0 n^0) (+ 0 k^0)) (= i^0 i^post)) (= j^0 j^post)) (= k^0 k^post)) (= maxarg1^0 maxarg1^post)) (= maxarg2^0 maxarg2^post)) (= n^0 n^post)) (= scale^0 scale^post)) (= sigma^0 sigma^post)) (= sqrarg^0 sqrarg^post)) (= sum^0 sum^post)) (= tau^0 tau^post)) (= tmp^0 tmp^post)) (= tmp___0^0 tmp___0^post)) (= tmp___1^0 tmp___1^post)) (= tmp___2^0 tmp___2^post)) (= tmp___3^0 tmp___3^post)) (= tmp___4^0 tmp___4^post)) (= tmp___5^0 tmp___5^post)))
    (cfg_trans2 pc^0 l1 pc^post l5 (and (and (and (and (and (and (and (and (and (and (and (and (and (and (and (and (and (and (<= (+ 1 k^0) (+ 0 n^0)) (= scale^post 0)) (= i^0 i^post)) (= j^0 j^post)) (= k^0 k^post)) (= maxarg1^0 maxarg1^post)) (= maxarg2^0 maxarg2^post)) (= n^0 n^post)) (= sigma^0 sigma^post)) (= sqrarg^0 sqrarg^post)) (= sum^0 sum^post)) (= tau^0 tau^post)) (= tmp^0 tmp^post)) (= tmp___0^0 tmp___0^post)) (= tmp___1^0 tmp___1^post)) (= tmp___2^0 tmp___2^post)) (= tmp___3^0 tmp___3^post)) (= tmp___4^0 tmp___4^post)) (= tmp___5^0 tmp___5^post)))
    (cfg_trans2 pc^0 l26 pc^post l0 (and (and (and (and (and (and (and (and (and (and (and (and (and (and (and (and (and (and (<= 2 (+ 0 n^0)) (= i^0 i^post)) (= j^0 j^post)) (= k^0 k^post)) (= maxarg1^0 maxarg1^post)) (= maxarg2^0 maxarg2^post)) (= n^0 n^post)) (= scale^0 scale^post)) (= sigma^0 sigma^post)) (= sqrarg^0 sqrarg^post)) (= sum^0 sum^post)) (= tau^0 tau^post)) (= tmp^0 tmp^post)) (= tmp___0^0 tmp___0^post)) (= tmp___1^0 tmp___1^post)) (= tmp___2^0 tmp___2^post)) (= tmp___3^0 tmp___3^post)) (= tmp___4^0 tmp___4^post)) (= tmp___5^0 tmp___5^post)))
    (cfg_trans2 pc^0 l27 pc^post l26 (and (and (and (and (and (and (and (and (and (and (and (and (and (and (and (and (and (= i^0 i^post) (= j^0 j^post)) (= k^0 k^post)) (= maxarg1^0 maxarg1^post)) (= maxarg2^0 maxarg2^post)) (= n^0 n^post)) (= scale^0 scale^post)) (= sigma^0 sigma^post)) (= sqrarg^0 sqrarg^post)) (= sum^0 sum^post)) (= tau^0 tau^post)) (= tmp^0 tmp^post)) (= tmp___0^0 tmp___0^post)) (= tmp___1^0 tmp___1^post)) (= tmp___2^0 tmp___2^post)) (= tmp___3^0 tmp___3^post)) (= tmp___4^0 tmp___4^post)) (= tmp___5^0 tmp___5^post)))
  )
)
